%BLOCK LATTICE_CART
       4.168400000000000       0.000000000000000       0.000000000000000
       0.000000000000000       4.168400000000001       0.000000000000000
       0.000000000000000       0.000000000000000       4.168400000000001
%ENDBLOCK LATTICE_CART

%BLOCK POSITIONS_FRAC
  O   0.4999999999999999    0.4999999999999999    0.4999999999999999
  O   0.4999999999999999    0.0000000000000000    0.0000000000000000
  O   0.0000000000000000    0.4999999999999999    0.0000000000000000
  O   0.0000000000000000    0.0000000000000000    0.4999999999999999
 Ni   0.0000000000000000    0.0000000000000000    0.0000000000000000 SPIN=  2.0000000000
 Ni   0.0000000000000000    0.4999999999999999    0.4999999999999999 SPIN=  2.0000000000
 Ni   0.4999999999999999    0.0000000000000000    0.4999999999999999 SPIN=  2.0000000000
 Ni   0.4999999999999999    0.4999999999999999    0.0000000000000000 SPIN=  2.0000000000
%ENDBLOCK POSITIONS_FRAC

%BLOCK KPOINTS_LIST
   0.3333333333333333    0.3333333333333333    0.3333333333333333       0.074074074074074
   0.3333333333333333    0.3333333333333333    0.0000000000000000       0.074074074074074
   0.3333333333333333    0.3333333333333333   -0.3333333333333333       0.074074074074074
   0.3333333333333333    0.0000000000000000    0.3333333333333333       0.074074074074074
   0.3333333333333333    0.0000000000000000    0.0000000000000000       0.074074074074074
   0.3333333333333333    0.0000000000000000   -0.3333333333333333       0.074074074074074
   0.3333333333333333   -0.3333333333333333    0.3333333333333333       0.074074074074074
   0.3333333333333333   -0.3333333333333333    0.0000000000000000       0.074074074074074
   0.3333333333333333   -0.3333333333333333   -0.3333333333333333       0.074074074074074
   0.0000000000000000    0.3333333333333333    0.3333333333333333       0.074074074074074
   0.0000000000000000    0.3333333333333333    0.0000000000000000       0.074074074074074
   0.0000000000000000    0.3333333333333333   -0.3333333333333333       0.074074074074074
   0.0000000000000000    0.0000000000000000    0.3333333333333333       0.074074074074074
   0.0000000000000000    0.0000000000000000    0.0000000000000000       0.037037037037037
%ENDBLOCK KPOINTS_LIST

FIX_ALL_CELL : false

FIX_COM : false
%BLOCK IONIC_CONSTRAINTS
%ENDBLOCK IONIC_CONSTRAINTS

%BLOCK EXTERNAL_EFIELD
    0.0000000000     0.0000000000     0.0000000000 
%ENDBLOCK EXTERNAL_EFIELD

%BLOCK EXTERNAL_PRESSURE
    0.0000000000    0.0000000000    0.0000000000
                    0.0000000000    0.0000000000
                                    0.0000000000
%ENDBLOCK EXTERNAL_PRESSURE

%BLOCK SPECIES_MASS
       O     15.9989995956
      Ni     58.7099990845
%ENDBLOCK SPECIES_MASS

%BLOCK SPECIES_POT
       O  /Users/tony/Downloads/Potentials/O_00PBE.usp
      Ni  /Users/tony/Downloads/Potentials/Ni_00PBE.uspcc
%ENDBLOCK SPECIES_POT

%BLOCK SPECIES_LCAO_STATES
       O         2
      Ni         3
%ENDBLOCK SPECIES_LCAO_STATES

%BLOCK HUBBARD_U
      Ni       1       d:       6.000000000000000
      Ni       2       d:       6.000000000000000
      Ni       3       d:       6.000000000000000
      Ni       4       d:       6.000000000000000
%ENDBLOCK HUBBARD_U

QUANTIZATION_AXIS :    0.0000     0.0000     1.0000
